p cnf 11 26
1 2 0
-1 -2 0
3 4 5 0
-3 -4 0
-3 -5 0
-4 -5 0
6 7 0
-6 -7 0
8 9 0
-8 -9 0
10 11 0
-10 -11 0
-1 -4 0
-2 -5 0
-1 -6 0
-2 -7 0
-1 -9 0
-1 -10 0
-2 -11 0
-4 -6 0
-5 -7 0
-3 -8 0
-4 -9 0
-6 -9 0
-6 -10 0
-7 -11 0
